certificates/rado_a6_c250_N41.cnf
c Rad2 upper bound instance: x1 + 6*x2 - x3 = 250, interval [1,41]
p cnf 41 266
1 5 41 0
-1 -5 -41 0
2 6 41 0
-2 -6 -41 0
3 7 41 0
-3 -7 -41 0
4 8 41 0
-4 -8 -41 0
5 9 41 0
-5 -9 -41 0
6 10 41 0
-6 -10 -41 0
1 11 40 0
-1 -11 -40 0
7 11 41 0
-7 -11 -41 0
2 12 40 0
-2 -12 -40 0
8 12 41 0
-8 -12 -41 0
3 13 40 0
-3 -13 -40 0
9 13 41 0
-9 -13 -41 0
4 14 40 0
-4 -14 -40 0
10 14 41 0
-10 -14 -41 0
5 15 40 0
-5 -15 -40 0
11 15 41 0
-11 -15 -41 0
6 16 40 0
-6 -16 -40 0
12 16 41 0
-12 -16 -41 0
1 17 39 0
-1 -17 -39 0
7 17 40 0
-7 -17 -40 0
13 17 41 0
-13 -17 -41 0
2 18 39 0
-2 -18 -39 0
8 18 40 0
-8 -18 -40 0
14 18 41 0
-14 -18 -41 0
3 19 39 0
-3 -19 -39 0
9 19 40 0
-9 -19 -40 0
15 19 41 0
-15 -19 -41 0
4 20 39 0
-4 -20 -39 0
10 20 40 0
-10 -20 -40 0
16 20 41 0
-16 -20 -41 0
5 21 39 0
-5 -21 -39 0
11 21 40 0
-11 -21 -40 0
17 21 41 0
-17 -21 -41 0
6 22 39 0
-6 -22 -39 0
12 22 40 0
-12 -22 -40 0
18 22 41 0
-18 -22 -41 0
1 23 38 0
-1 -23 -38 0
7 23 39 0
-7 -23 -39 0
13 23 40 0
-13 -23 -40 0
19 23 41 0
-19 -23 -41 0
2 24 38 0
-2 -24 -38 0
8 24 39 0
-8 -24 -39 0
14 24 40 0
-14 -24 -40 0
20 24 41 0
-20 -24 -41 0
3 25 38 0
-3 -25 -38 0
9 25 39 0
-9 -25 -39 0
15 25 40 0
-15 -25 -40 0
21 25 41 0
-21 -25 -41 0
4 26 38 0
-4 -26 -38 0
10 26 39 0
-10 -26 -39 0
16 26 40 0
-16 -26 -40 0
22 26 41 0
-22 -26 -41 0
5 27 38 0
-5 -27 -38 0
11 27 39 0
-11 -27 -39 0
17 27 40 0
-17 -27 -40 0
23 27 41 0
-23 -27 -41 0
6 28 38 0
-6 -28 -38 0
12 28 39 0
-12 -28 -39 0
18 28 40 0
-18 -28 -40 0
24 28 41 0
-24 -28 -41 0
1 29 37 0
-1 -29 -37 0
7 29 38 0
-7 -29 -38 0
13 29 39 0
-13 -29 -39 0
19 29 40 0
-19 -29 -40 0
25 29 41 0
-25 -29 -41 0
2 30 37 0
-2 -30 -37 0
8 30 38 0
-8 -30 -38 0
14 30 39 0
-14 -30 -39 0
20 30 40 0
-20 -30 -40 0
26 30 41 0
-26 -30 -41 0
3 31 37 0
-3 -31 -37 0
9 31 38 0
-9 -31 -38 0
15 31 39 0
-15 -31 -39 0
21 31 40 0
-21 -31 -40 0
27 31 41 0
-27 -31 -41 0
4 32 37 0
-4 -32 -37 0
10 32 38 0
-10 -32 -38 0
16 32 39 0
-16 -32 -39 0
22 32 40 0
-22 -32 -40 0
28 32 41 0
-28 -32 -41 0
5 33 37 0
-5 -33 -37 0
11 33 38 0
-11 -33 -38 0
17 33 39 0
-17 -33 -39 0
23 33 40 0
-23 -33 -40 0
29 33 41 0
-29 -33 -41 0
6 34 37 0
-6 -34 -37 0
12 34 38 0
-12 -34 -38 0
18 34 39 0
-18 -34 -39 0
24 34 40 0
-24 -34 -40 0
30 34 41 0
-30 -34 -41 0
1 35 36 0
-1 -35 -36 0
7 35 37 0
-7 -35 -37 0
13 35 38 0
-13 -35 -38 0
19 35 39 0
-19 -35 -39 0
25 35 40 0
-25 -35 -40 0
31 35 41 0
-31 -35 -41 0
2 36 0
-2 -36 0
8 36 37 0
-8 -36 -37 0
14 36 38 0
-14 -36 -38 0
20 36 39 0
-20 -36 -39 0
26 36 40 0
-26 -36 -40 0
32 36 41 0
-32 -36 -41 0
3 36 37 0
-3 -36 -37 0
9 37 0
-9 -37 0
15 37 38 0
-15 -37 -38 0
21 37 39 0
-21 -37 -39 0
27 37 40 0
-27 -37 -40 0
33 37 41 0
-33 -37 -41 0
4 36 38 0
-4 -36 -38 0
10 37 38 0
-10 -37 -38 0
16 38 0
-16 -38 0
22 38 39 0
-22 -38 -39 0
28 38 40 0
-28 -38 -40 0
34 38 41 0
-34 -38 -41 0
5 36 39 0
-5 -36 -39 0
11 37 39 0
-11 -37 -39 0
17 38 39 0
-17 -38 -39 0
23 39 0
-23 -39 0
29 39 40 0
-29 -39 -40 0
35 39 41 0
-35 -39 -41 0
6 36 40 0
-6 -36 -40 0
12 37 40 0
-12 -37 -40 0
18 38 40 0
-18 -38 -40 0
24 39 40 0
-24 -39 -40 0
30 40 0
-30 -40 0
36 40 41 0
-36 -40 -41 0
1 35 41 0
-1 -35 -41 0
7 36 41 0
-7 -36 -41 0
13 37 41 0
-13 -37 -41 0
19 38 41 0
-19 -38 -41 0
25 39 41 0
-25 -39 -41 0
31 40 41 0
-31 -40 -41 0
37 41 0
-37 -41 0
