certificates/rado_a6_c250_N41.drat
-41 0
37 0
-9 0
5 0
13 0
-33 0
29 0
-1 0
-39 0
35 0
23 0
25 0
17 0
-7 0
-38 0
-40 0
3 0
11 0
36 0
16 0
22 0
28 0
34 0
18 0
19 0
31 0
30 0
24 0
0
